h=7;
w=7;
left=[0, 5, 0, 0, 0, 0, 0];
right=[0, 0, 2, 2, 0, 0, 0];
top=[4, 3, 1, 0, 0, 0, 0];
down=[1, 2, 0, 3, 0, 0, 0];
b=[|4,0,0,0,2,0,0|0,0,0,0,0,4,0|0,3,0,0,1,0,0|3,0,0,0,0,0,0|6,7,4,2,0,0,0|2,1,5,4,0,3,0|7,4,6,0,0,1,0|]